peakDumbCharging = 11100; 
Machine = anon_enum(16); 
machineSpeed = [3700,3700,3700,3700,3700,3700,3700,3700,3700,3700,3700,3700,3700,3700,3700,3700]; 
machineLoad = [3700,3700,3700,3700,3700,3700,3700,3700,3700,3700,3700,3700,3700,3700,3700,3700]; 
Car = anon_enum(10); 
demandCar = [4280,5720,6840,1000,4280,7520,3400,9880,8120,3440]; 
arrivalCar = [67,65,64,56,52,49,47,47,45,37]; 
departureCar = [69,68,69,58,56,60,49,51,50,39]; 
